param n := 75;
param c := 150;
param w := 
1 148
2 146
3 146
4 142
5 141
6 134
7 133
8 133
9 131
10 131
11 129
12 129
13 127
14 126
15 125
16 123
17 116
18 113
19 110
20 109
21 107
22 106
23 103
24 99
25 98
26 98
27 94
28 92
29 87
30 85
31 83
32 79
33 78
34 78
35 72
36 71
37 70
38 67
39 61
40 58
41 55
42 49
43 49
44 46
45 44
46 43
47 42
48 41
49 39
50 39
51 36
52 34
53 33
54 28
55 26
56 25
57 25
58 22
59 19
60 17
61 17
62 15
63 14
64 14
65 12
66 10
67 9
68 9
69 7
70 6
71 4
72 4
73 3
74 2
75 1
;